NAME           C:\Bruker\Hvattum\knapsack\Problems\class1\100-5-14.mps
ROWS
 N  OBJ
 L  CONSTR1
 L  CONSTR2
 L  CONSTR3
 L  CONSTR4
 L  CONSTR5
COLUMNS
    INT0001   'MARKER'  'INTORG'
    X1        OBJ       807
    X1        CONSTR1   196
    X1        CONSTR2   916
    X1        CONSTR3   512
    X1        CONSTR4   459
    X1        CONSTR5   260
    X2        OBJ       445
    X2        CONSTR1   780
    X2        CONSTR2   485
    X2        CONSTR3   182
    X2        CONSTR4   284
    X2        CONSTR5   64
    X3        OBJ       673
    X3        CONSTR1   104
    X3        CONSTR2   585
    X3        CONSTR3   713
    X3        CONSTR4   625
    X3        CONSTR5   263
    X4        OBJ       559
    X4        CONSTR1   74
    X4        CONSTR2   316
    X4        CONSTR3   94
    X4        CONSTR4   253
    X4        CONSTR5   997
    X5        OBJ       763
    X5        CONSTR1   440
    X5        CONSTR2   549
    X5        CONSTR3   203
    X5        CONSTR4   88
    X5        CONSTR5   613
    X6        OBJ       725
    X6        CONSTR1   177
    X6        CONSTR2   903
    X6        CONSTR3   317
    X6        CONSTR4   737
    X6        CONSTR5   304
    X7        OBJ       752
    X7        CONSTR1   34
    X7        CONSTR2   579
    X7        CONSTR3   389
    X7        CONSTR4   933
    X7        CONSTR5   157
    X8        OBJ       1051
    X8        CONSTR1   694
    X8        CONSTR2   478
    X8        CONSTR3   929
    X8        CONSTR4   57
    X8        CONSTR5   878
    X9        OBJ       1011
    X9        CONSTR1   708
    X9        CONSTR2   148
    X9        CONSTR3   748
    X9        CONSTR4   658
    X9        CONSTR5   955
    X10       OBJ       450
    X10       CONSTR1   499
    X10       CONSTR2   60
    X10       CONSTR3   451
    X10       CONSTR4   949
    X10       CONSTR5   245
    X11       OBJ       599
    X11       CONSTR1   912
    X11       CONSTR2   412
    X11       CONSTR3   860
    X11       CONSTR4   114
    X11       CONSTR5   626
    X12       OBJ       581
    X12       CONSTR1   309
    X12       CONSTR2   447
    X12       CONSTR3   513
    X12       CONSTR4   131
    X12       CONSTR5   418
    X13       OBJ       934
    X13       CONSTR1   366
    X13       CONSTR2   448
    X13       CONSTR3   382
    X13       CONSTR4   412
    X13       CONSTR5   660
    X14       OBJ       833
    X14       CONSTR1   137
    X14       CONSTR2   359
    X14       CONSTR3   350
    X14       CONSTR4   785
    X14       CONSTR5   42
    X15       OBJ       802
    X15       CONSTR1   149
    X15       CONSTR2   573
    X15       CONSTR3   904
    X15       CONSTR4   888
    X15       CONSTR5   719
    X16       OBJ       661
    X16       CONSTR1   190
    X16       CONSTR2   391
    X16       CONSTR3   936
    X16       CONSTR4   702
    X16       CONSTR5   891
    X17       OBJ       845
    X17       CONSTR1   636
    X17       CONSTR2   513
    X17       CONSTR3   522
    X17       CONSTR4   816
    X17       CONSTR5   852
    X18       OBJ       856
    X18       CONSTR1   188
    X18       CONSTR2   563
    X18       CONSTR3   459
    X18       CONSTR4   725
    X18       CONSTR5   595
    X19       OBJ       704
    X19       CONSTR1   647
    X19       CONSTR2   630
    X19       CONSTR3   773
    X19       CONSTR4   597
    X19       CONSTR5   715
    X20       OBJ       769
    X20       CONSTR1   400
    X20       CONSTR2   596
    X20       CONSTR3   29
    X20       CONSTR4   738
    X20       CONSTR5   539
    X21       OBJ       600
    X21       CONSTR1   331
    X21       CONSTR2   526
    X21       CONSTR3   226
    X21       CONSTR4   794
    X21       CONSTR5   488
    X22       OBJ       1091
    X22       CONSTR1   676
    X22       CONSTR2   484
    X22       CONSTR3   889
    X22       CONSTR4   763
    X22       CONSTR5   883
    X23       OBJ       687
    X23       CONSTR1   292
    X23       CONSTR2   570
    X23       CONSTR3   210
    X23       CONSTR4   407
    X23       CONSTR5   161
    X24       OBJ       832
    X24       CONSTR1   952
    X24       CONSTR2   782
    X24       CONSTR3   487
    X24       CONSTR4   767
    X24       CONSTR5   475
    X25       OBJ       650
    X25       CONSTR1   761
    X25       CONSTR2   96
    X25       CONSTR3   148
    X25       CONSTR4   485
    X25       CONSTR5   795
    X26       OBJ       916
    X26       CONSTR1   957
    X26       CONSTR2   328
    X26       CONSTR3   481
    X26       CONSTR4   254
    X26       CONSTR5   680
    X27       OBJ       939
    X27       CONSTR1   151
    X27       CONSTR2   781
    X27       CONSTR3   952
    X27       CONSTR4   694
    X27       CONSTR5   300
    X28       OBJ       518
    X28       CONSTR1   34
    X28       CONSTR2   241
    X28       CONSTR3   588
    X28       CONSTR4   795
    X28       CONSTR5   489
    X29       OBJ       1190
    X29       CONSTR1   419
    X29       CONSTR2   619
    X29       CONSTR3   916
    X29       CONSTR4   649
    X29       CONSTR5   868
    X30       OBJ       678
    X30       CONSTR1   169
    X30       CONSTR2   908
    X30       CONSTR3   146
    X30       CONSTR4   162
    X30       CONSTR5   304
    X31       OBJ       326
    X31       CONSTR1   359
    X31       CONSTR2   47
    X31       CONSTR3   119
    X31       CONSTR4   811
    X31       CONSTR5   82
    X32       OBJ       1060
    X32       CONSTR1   873
    X32       CONSTR2   89
    X32       CONSTR3   608
    X32       CONSTR4   956
    X32       CONSTR5   698
    X33       OBJ       804
    X33       CONSTR1   845
    X33       CONSTR2   511
    X33       CONSTR3   569
    X33       CONSTR4   955
    X33       CONSTR5   884
    X34       OBJ       1095
    X34       CONSTR1   316
    X34       CONSTR2   662
    X34       CONSTR3   758
    X34       CONSTR4   792
    X34       CONSTR5   977
    X35       OBJ       457
    X35       CONSTR1   363
    X35       CONSTR2   981
    X35       CONSTR3   61
    X35       CONSTR4   299
    X35       CONSTR5   209
    X36       OBJ       505
    X36       CONSTR1   47
    X36       CONSTR2   552
    X36       CONSTR3   222
    X36       CONSTR4   484
    X36       CONSTR5   701
    X37       OBJ       828
    X37       CONSTR1   317
    X37       CONSTR2   602
    X37       CONSTR3   531
    X37       CONSTR4   994
    X37       CONSTR5   120
    X38       OBJ       917
    X38       CONSTR1   242
    X38       CONSTR2   846
    X38       CONSTR3   143
    X38       CONSTR4   688
    X38       CONSTR5   444
    X39       OBJ       786
    X39       CONSTR1   487
    X39       CONSTR2   123
    X39       CONSTR3   166
    X39       CONSTR4   417
    X39       CONSTR5   333
    X40       OBJ       561
    X40       CONSTR1   643
    X40       CONSTR2   47
    X40       CONSTR3   664
    X40       CONSTR4   487
    X40       CONSTR5   412
    X41       OBJ       1041
    X41       CONSTR1   966
    X41       CONSTR2   723
    X41       CONSTR3   361
    X41       CONSTR4   763
    X41       CONSTR5   307
    X42       OBJ       929
    X42       CONSTR1   913
    X42       CONSTR2   347
    X42       CONSTR3   455
    X42       CONSTR4   300
    X42       CONSTR5   800
    X43       OBJ       946
    X43       CONSTR1   813
    X43       CONSTR2   196
    X43       CONSTR3   19
    X43       CONSTR4   927
    X43       CONSTR5   773
    X44       OBJ       347
    X44       CONSTR1   486
    X44       CONSTR2   61
    X44       CONSTR3   166
    X44       CONSTR4   102
    X44       CONSTR5   472
    X45       OBJ       684
    X45       CONSTR1   677
    X45       CONSTR2   183
    X45       CONSTR3   228
    X45       CONSTR4   356
    X45       CONSTR5   512
    X46       OBJ       504
    X46       CONSTR1   502
    X46       CONSTR2   215
    X46       CONSTR3   193
    X46       CONSTR4   742
    X46       CONSTR5   797
    X47       OBJ       698
    X47       CONSTR1   260
    X47       CONSTR2   574
    X47       CONSTR3   554
    X47       CONSTR4   987
    X47       CONSTR5   648
    X48       OBJ       784
    X48       CONSTR1   36
    X48       CONSTR2   122
    X48       CONSTR3   80
    X48       CONSTR4   441
    X48       CONSTR5   948
    X49       OBJ       840
    X49       CONSTR1   830
    X49       CONSTR2   549
    X49       CONSTR3   723
    X49       CONSTR4   848
    X49       CONSTR5   771
    X50       OBJ       677
    X50       CONSTR1   249
    X50       CONSTR2   346
    X50       CONSTR3   123
    X50       CONSTR4   66
    X50       CONSTR5   671
    X51       OBJ       571
    X51       CONSTR1   618
    X51       CONSTR2   966
    X51       CONSTR3   273
    X51       CONSTR4   106
    X51       CONSTR5   251
    X52       OBJ       753
    X52       CONSTR1   194
    X52       CONSTR2   626
    X52       CONSTR3   340
    X52       CONSTR4   150
    X52       CONSTR5   510
    X53       OBJ       501
    X53       CONSTR1   76
    X53       CONSTR2   32
    X53       CONSTR3   653
    X53       CONSTR4   504
    X53       CONSTR5   725
    X54       OBJ       656
    X54       CONSTR1   16
    X54       CONSTR2   480
    X54       CONSTR3   672
    X54       CONSTR4   17
    X54       CONSTR5   807
    X55       OBJ       899
    X55       CONSTR1   273
    X55       CONSTR2   486
    X55       CONSTR3   250
    X55       CONSTR4   149
    X55       CONSTR5   863
    X56       OBJ       580
    X56       CONSTR1   91
    X56       CONSTR2   378
    X56       CONSTR3   438
    X56       CONSTR4   748
    X56       CONSTR5   508
    X57       OBJ       877
    X57       CONSTR1   379
    X57       CONSTR2   975
    X57       CONSTR3   521
    X57       CONSTR4   100
    X57       CONSTR5   217
    X58       OBJ       1057
    X58       CONSTR1   923
    X58       CONSTR2   345
    X58       CONSTR3   848
    X58       CONSTR4   674
    X58       CONSTR5   992
    X59       OBJ       998
    X59       CONSTR1   922
    X59       CONSTR2   416
    X59       CONSTR3   236
    X59       CONSTR4   829
    X59       CONSTR5   924
    X60       OBJ       1054
    X60       CONSTR1   755
    X60       CONSTR2   588
    X60       CONSTR3   435
    X60       CONSTR4   942
    X60       CONSTR5   221
    X61       OBJ       776
    X61       CONSTR1   109
    X61       CONSTR2   981
    X61       CONSTR3   5
    X61       CONSTR4   251
    X61       CONSTR5   130
    X62       OBJ       643
    X62       CONSTR1   612
    X62       CONSTR2   339
    X62       CONSTR3   534
    X62       CONSTR4   169
    X62       CONSTR5   902
    X63       OBJ       1073
    X63       CONSTR1   765
    X63       CONSTR2   241
    X63       CONSTR3   663
    X63       CONSTR4   727
    X63       CONSTR5   816
    X64       OBJ       1068
    X64       CONSTR1   984
    X64       CONSTR2   715
    X64       CONSTR3   236
    X64       CONSTR4   416
    X64       CONSTR5   514
    X65       OBJ       691
    X65       CONSTR1   214
    X65       CONSTR2   777
    X65       CONSTR3   544
    X65       CONSTR4   248
    X65       CONSTR5   216
    X66       OBJ       616
    X66       CONSTR1   317
    X66       CONSTR2   962
    X66       CONSTR3   68
    X66       CONSTR4   133
    X66       CONSTR5   295
    X67       OBJ       812
    X67       CONSTR1   563
    X67       CONSTR2   790
    X67       CONSTR3   534
    X67       CONSTR4   224
    X67       CONSTR5   261
    X68       OBJ       752
    X68       CONSTR1   723
    X68       CONSTR2   541
    X68       CONSTR3   971
    X68       CONSTR4   659
    X68       CONSTR5   216
    X69       OBJ       898
    X69       CONSTR1   769
    X69       CONSTR2   598
    X69       CONSTR3   944
    X69       CONSTR4   305
    X69       CONSTR5   134
    X70       OBJ       457
    X70       CONSTR1   30
    X70       CONSTR2   619
    X70       CONSTR3   657
    X70       CONSTR4   298
    X70       CONSTR5   134
    X71       OBJ       849
    X71       CONSTR1   298
    X71       CONSTR2   216
    X71       CONSTR3   626
    X71       CONSTR4   439
    X71       CONSTR5   606
    X72       OBJ       907
    X72       CONSTR1   547
    X72       CONSTR2   772
    X72       CONSTR3   862
    X72       CONSTR4   953
    X72       CONSTR5   495
    X73       OBJ       575
    X73       CONSTR1   550
    X73       CONSTR2   416
    X73       CONSTR3   434
    X73       CONSTR4   366
    X73       CONSTR5   797
    X74       OBJ       1139
    X74       CONSTR1   325
    X74       CONSTR2   940
    X74       CONSTR3   982
    X74       CONSTR4   651
    X74       CONSTR5   716
    X75       OBJ       1039
    X75       CONSTR1   854
    X75       CONSTR2   879
    X75       CONSTR3   315
    X75       CONSTR4   350
    X75       CONSTR5   352
    X76       OBJ       729
    X76       CONSTR1   468
    X76       CONSTR2   923
    X76       CONSTR3   494
    X76       CONSTR4   767
    X76       CONSTR5   336
    X77       OBJ       389
    X77       CONSTR1   114
    X77       CONSTR2   27
    X77       CONSTR3   6
    X77       CONSTR4   102
    X77       CONSTR5   430
    X78       OBJ       775
    X78       CONSTR1   941
    X78       CONSTR2   763
    X78       CONSTR3   172
    X78       CONSTR4   733
    X78       CONSTR5   21
    X79       OBJ       835
    X79       CONSTR1   503
    X79       CONSTR2   712
    X79       CONSTR3   342
    X79       CONSTR4   102
    X79       CONSTR5   912
    X80       OBJ       586
    X80       CONSTR1   945
    X80       CONSTR2   48
    X80       CONSTR3   326
    X80       CONSTR4   5
    X80       CONSTR5   17
    X81       OBJ       624
    X81       CONSTR1   141
    X81       CONSTR2   692
    X81       CONSTR3   446
    X81       CONSTR4   890
    X81       CONSTR5   114
    X82       OBJ       575
    X82       CONSTR1   10
    X82       CONSTR2   857
    X82       CONSTR3   333
    X82       CONSTR4   876
    X82       CONSTR5   755
    X83       OBJ       874
    X83       CONSTR1   663
    X83       CONSTR2   750
    X83       CONSTR3   540
    X83       CONSTR4   133
    X83       CONSTR5   952
    X84       OBJ       1007
    X84       CONSTR1   47
    X84       CONSTR2   966
    X84       CONSTR3   373
    X84       CONSTR4   951
    X84       CONSTR5   423
    X85       OBJ       787
    X85       CONSTR1   313
    X85       CONSTR2   676
    X85       CONSTR3   546
    X85       CONSTR4   773
    X85       CONSTR5   610
    X86       OBJ       574
    X86       CONSTR1   362
    X86       CONSTR2   300
    X86       CONSTR3   380
    X86       CONSTR4   174
    X86       CONSTR5   990
    X87       OBJ       666
    X87       CONSTR1   799
    X87       CONSTR2   786
    X87       CONSTR3   8
    X87       CONSTR4   65
    X87       CONSTR5   217
    X88       OBJ       796
    X88       CONSTR1   477
    X88       CONSTR2   7
    X88       CONSTR3   114
    X88       CONSTR4   824
    X88       CONSTR5   144
    X89       OBJ       743
    X89       CONSTR1   807
    X89       CONSTR2   447
    X89       CONSTR3   949
    X89       CONSTR4   834
    X89       CONSTR5   389
    X90       OBJ       767
    X90       CONSTR1   603
    X90       CONSTR2   431
    X90       CONSTR3   318
    X90       CONSTR4   713
    X90       CONSTR5   862
    X91       OBJ       599
    X91       CONSTR1   166
    X91       CONSTR2   986
    X91       CONSTR3   638
    X91       CONSTR4   281
    X91       CONSTR5   816
    X92       OBJ       1046
    X92       CONSTR1   468
    X92       CONSTR2   563
    X92       CONSTR3   874
    X92       CONSTR4   803
    X92       CONSTR5   230
    X93       OBJ       647
    X93       CONSTR1   266
    X93       CONSTR2   489
    X93       CONSTR3   197
    X93       CONSTR4   324
    X93       CONSTR5   365
    X94       OBJ       782
    X94       CONSTR1   188
    X94       CONSTR2   682
    X94       CONSTR3   125
    X94       CONSTR4   429
    X94       CONSTR5   565
    X95       OBJ       535
    X95       CONSTR1   642
    X95       CONSTR2   897
    X95       CONSTR3   204
    X95       CONSTR4   687
    X95       CONSTR5   168
    X96       OBJ       924
    X96       CONSTR1   354
    X96       CONSTR2   76
    X96       CONSTR3   955
    X96       CONSTR4   714
    X96       CONSTR5   106
    X97       OBJ       748
    X97       CONSTR1   176
    X97       CONSTR2   571
    X97       CONSTR3   301
    X97       CONSTR4   91
    X97       CONSTR5   384
    X98       OBJ       718
    X98       CONSTR1   340
    X98       CONSTR2   969
    X98       CONSTR3   632
    X98       CONSTR4   66
    X98       CONSTR5   232
    X99       OBJ       855
    X99       CONSTR1   738
    X99       CONSTR2   828
    X99       CONSTR3   298
    X99       CONSTR4   720
    X99       CONSTR5   995
    X100      OBJ       1118
    X100      CONSTR1   927
    X100      CONSTR2   493
    X100      CONSTR3   229
    X100      CONSTR4   803
    X100      CONSTR5   766
    INT0001   'MARKER'  'INTEND'
RHS
    RHS10001  CONSTR1   22986
    RHS10001  CONSTR2   26540
    RHS10001  CONSTR3   22447
    RHS10001  CONSTR4   26202
    RHS10001  CONSTR5   26098
BOUNDS
 BV BND       X1        .00
 BV BND       X2        .00
 BV BND       X3        .00
 BV BND       X4        .00
 BV BND       X5        .00
 BV BND       X6        .00
 BV BND       X7        .00
 BV BND       X8        .00
 BV BND       X9        .00
 BV BND       X10       .00
 BV BND       X11       .00
 BV BND       X12       .00
 BV BND       X13       .00
 BV BND       X14       .00
 BV BND       X15       .00
 BV BND       X16       .00
 BV BND       X17       .00
 BV BND       X18       .00
 BV BND       X19       .00
 BV BND       X20       .00
 BV BND       X21       .00
 BV BND       X22       .00
 BV BND       X23       .00
 BV BND       X24       .00
 BV BND       X25       .00
 BV BND       X26       .00
 BV BND       X27       .00
 BV BND       X28       .00
 BV BND       X29       .00
 BV BND       X30       .00
 BV BND       X31       .00
 BV BND       X32       .00
 BV BND       X33       .00
 BV BND       X34       .00
 BV BND       X35       .00
 BV BND       X36       .00
 BV BND       X37       .00
 BV BND       X38       .00
 BV BND       X39       .00
 BV BND       X40       .00
 BV BND       X41       .00
 BV BND       X42       .00
 BV BND       X43       .00
 BV BND       X44       .00
 BV BND       X45       .00
 BV BND       X46       .00
 BV BND       X47       .00
 BV BND       X48       .00
 BV BND       X49       .00
 BV BND       X50       .00
 BV BND       X51       .00
 BV BND       X52       .00
 BV BND       X53       .00
 BV BND       X54       .00
 BV BND       X55       .00
 BV BND       X56       .00
 BV BND       X57       .00
 BV BND       X58       .00
 BV BND       X59       .00
 BV BND       X60       .00
 BV BND       X61       .00
 BV BND       X62       .00
 BV BND       X63       .00
 BV BND       X64       .00
 BV BND       X65       .00
 BV BND       X66       .00
 BV BND       X67       .00
 BV BND       X68       .00
 BV BND       X69       .00
 BV BND       X70       .00
 BV BND       X71       .00
 BV BND       X72       .00
 BV BND       X73       .00
 BV BND       X74       .00
 BV BND       X75       .00
 BV BND       X76       .00
 BV BND       X77       .00
 BV BND       X78       .00
 BV BND       X79       .00
 BV BND       X80       .00
 BV BND       X81       .00
 BV BND       X82       .00
 BV BND       X83       .00
 BV BND       X84       .00
 BV BND       X85       .00
 BV BND       X86       .00
 BV BND       X87       .00
 BV BND       X88       .00
 BV BND       X89       .00
 BV BND       X90       .00
 BV BND       X91       .00
 BV BND       X92       .00
 BV BND       X93       .00
 BV BND       X94       .00
 BV BND       X95       .00
 BV BND       X96       .00
 BV BND       X97       .00
 BV BND       X98       .00
 BV BND       X99       .00
 BV BND       X100      .00
ENDATA
